20
39
37
-19 -5 -39 -36 -22 -37 -5 -11 -31 -30 -14 -4 -20 -32 -8 -31 -7 -13
 -35 -4
-16 -6 -29 -36 -6 -16 -21 -15 -24 -37 -18 -4 -9 -18 -34 -22 -29 -13
 -25 -14
36 22 32 12 6 36 12 19 3 3 36 32 25 8 20 6 11 10 34 39
36 23 34 8 8 35 14 27 18 33 2 23 14 9 13 16 5 37 8 21
